p tw 156 428
0 1
0 20
1 79
1 155
2 3
2 4
2 5
2 50
2 66
2 67
2 68
3 4
3 5
3 51
3 139
3 147
4 5
4 57
4 58
5 6
5 73
6 7
6 73
7 75
8 9
8 110
9 98
9 109
10 11
10 12
10 32
10 116
11 12
11 55
11 56
12 76
13 14
13 15
13 16
13 23
13 34
13 59
14 15
14 16
14 21
14 35
14 36
14 37
15 16
15 22
16 28
16 29
16 30
16 31
17 18
17 19
17 81
17 123
18 19
18 82
18 113
18 114
18 115
19 48
19 132
19 133
20 137
20 155
21 22
21 23
21 24
21 25
21 35
21 36
21 37
22 23
22 24
22 25
23 24
23 25
23 34
23 59
24 25
24 39
24 45
24 93
24 94
24 95
24 96
25 72
25 134
25 138
26 27
26 53
26 54
27 38
27 68
27 92
27 101
27 150
27 153
28 29
28 30
28 31
28 59
28 70
29 30
29 31
29 69
29 122
30 31
30 71
31 117
31 118
31 119
32 33
32 34
32 116
33 34
33 142
34 59
35 36
35 37
35 72
36 37
36 56
36 128
36 134
37 53
37 87
37 95
37 131
37 150
37 151
38 39
38 40
38 68
38 92
38 101
38 150
38 153
39 40
39 45
39 93
39 94
39 95
39 96
40 102
41 42
41 43
41 44
41 45
41 78
41 113
41 121
42 43
42 44
42 45
42 77
42 103
42 119
42 120
43 44
43 45
43 117
43 122
43 146
44 45
44 118
45 93
45 94
45 95
45 96
46 47
46 135
47 136
47 146
48 49
48 50
48 51
48 52
48 132
48 133
49 50
49 51
49 52
49 130
50 51
50 52
50 66
50 67
50 68
51 52
51 139
51 147
52 54
52 96
52 101
52 102
52 103
52 104
53 54
53 87
53 95
53 131
53 150
53 151
54 96
54 101
54 102
54 103
54 104
55 56
55 76
56 128
56 134
57 58
57 60
57 86
57 105
57 139
58 61
58 106
59 70
60 61
60 86
60 105
60 139
61 106
62 63
62 140
63 74
63 154
64 65
64 127
64 152
65 125
65 129
65 138
65 143
66 67
66 68
66 147
67 68
67 114
67 130
67 133
68 92
68 101
68 150
68 153
69 70
69 71
69 122
70 71
72 134
72 138
73 74
73 75
74 75
74 154
77 78
77 79
77 80
77 103
77 119
77 120
78 79
78 80
78 113
78 121
79 80
79 155
80 81
80 82
81 82
81 123
82 113
82 114
82 115
83 84
83 85
83 86
83 141
84 85
84 86
84 87
84 88
84 89
84 90
85 86
85 107
85 111
85 112
86 105
86 139
87 88
87 89
87 90
87 95
87 131
87 150
87 151
88 89
88 90
88 112
88 126
88 141
88 153
89 90
89 108
89 124
89 149
90 97
91 92
91 93
91 131
92 93
92 101
92 150
92 153
93 94
93 95
93 96
94 95
94 96
94 148
95 96
95 131
95 150
95 151
96 101
96 102
96 103
96 104
97 124
97 125
97 126
98 99
98 100
98 109
99 100
99 145
100 111
100 144
101 102
101 103
101 104
101 150
101 153
102 103
102 104
103 104
103 119
103 120
104 148
104 151
105 106
105 107
105 139
106 107
107 111
107 112
108 109
108 110
108 124
108 149
109 110
111 112
111 144
112 126
112 141
112 153
113 114
113 115
113 121
114 115
114 130
114 133
115 123
116 142
117 118
117 119
117 122
117 146
118 119
119 120
120 121
122 146
124 125
124 126
124 149
125 126
125 129
125 138
125 143
126 141
126 153
127 128
127 129
127 152
128 129
128 134
129 138
129 143
130 133
131 150
131 151
132 133
132 140
132 154
134 138
135 136
135 137
136 137
136 146
137 155
138 143
139 147
140 154
141 153
143 149
143 152
144 145
148 151
149 152
150 151
150 153
